Maximize
  - 0.1727780625567 edge_0_1_0_0 - 3.5945455068125 edge_0_2_0_0
   - 0.41112449718944 edge_0_3_0_0 - 1.6917391060432 edge_0_4_0_0
   - 3.060317480007 edge_0_6_0_0 - 1.5134432348785 edge_0_7_0_0
   - 2.7580114841486 edge_0_10_0_0 + 0.917800027182 edge_1_2_0_0
   + 2.120867363064101 edge_1_3_0_0 + 0.7916671805506338 edge_1_4_0_0
   + 1.718428657082074 edge_1_5_0_0 + 1.323227918690944 edge_1_6_0_0
   + 1.223162395032388 edge_1_7_0_0 + 0.5967197491596129 edge_1_8_0_0
   - 0.1825666334294769 edge_1_9_0_0 - 0.20459970566505 edge_1_10_0_0
   + 0.6817899744599509 edge_1_11_0_0 + 3.068105091863355 edge_1_12_0_0
   - 0.39359561272965 edge_2_1_0_0 + 0.5437256877539207 edge_2_3_0_0
   + 0.4080011428644339 edge_2_4_0_0 - 0.6211376535792 edge_2_5_0_0
   + 0.029333904625404 edge_2_6_0_0 + 0.2328666679963411 edge_2_7_0_0
   - 0.096801578997875 edge_2_8_0_0 + 0.0450900937688263 edge_2_10_0_0
   - 0.1920215373210383 edge_2_11_0_0 + 0.13568192673172 edge_2_12_0_0
   + 0.2004472503544256 edge_3_1_0_0 + 3.3665191597734 edge_3_2_0_0
   + 2.718299743217864 edge_3_4_0_0 + 1.278352086260028 edge_3_5_0_0
   + 2.311539118662712 edge_3_6_0_0 + 3.038360531299716 edge_3_7_0_0
   + 0.44987516703092 edge_3_8_0_0 - 0.5376792893977532 edge_3_9_0_0
   + 1.549922595911273 edge_3_10_0_0 + 1.174034179344268 edge_3_11_0_0
   + 2.36638809291987 edge_3_12_0_0 + 0.1871934573534166 edge_4_1_0_0
   + 0.3938108777295875 edge_4_2_0_0 + 0.680193038267438 edge_4_3_0_0
   + 0.1563434917935617 edge_4_5_0_0 + 0.1183956215604909 edge_4_6_0_0
   + 0.1626672022699431 edge_4_7_0_0 - 0.1897999736886 edge_4_8_0_0
   - 0.3680881003936055 edge_4_10_0_0 - 0.3047144354270139 edge_4_11_0_0
   + 0.5855672397253198 edge_4_12_0_0 - 0.5384788186186724 edge_5_1_0_0
   - 0.7383513651468 edge_5_2_0_0 - 0.5789741567704122 edge_5_3_0_0
   - 0.7899009369084485 edge_5_4_0_0 + 0.5035556796592571 edge_5_6_0_0
   + 0.175523804796744 edge_5_7_0_0 - 0.7370860266742516 edge_5_11_0_0
   - 1.043006223747766 edge_6_1_0_0 - 1.311631143672621 edge_6_2_0_0
   - 0.396042688249227 edge_6_3_0_0 - 0.6312261791857625 edge_6_4_0_0
   - 0.4602852882989372 edge_6_5_0_0 - 0.0794272169130534 edge_6_7_0_0
   - 0.8183798483975162 edge_6_8_0_0 - 0.8401762558755964 edge_6_10_0_0
   - 0.4778538452057548 edge_6_12_0_0 + 0.3395981961239218 edge_7_1_0_0
   + 0.3353690816797539 edge_7_2_0_0 + 0.5732028606885453 edge_7_3_0_0
   + 0.2701242783318785 edge_7_4_0_0 + 1.085846214362392 edge_7_5_0_0
   + 0.9993359237283949 edge_7_6_0_0 + 2.215256610295595 edge_7_8_0_0
   + 0.1655007126836053 edge_7_9_0_0 + 2.581092333204098 edge_7_10_0_0
   + 2.069746717063199 edge_7_11_0_0 + 2.648389929738165 edge_7_12_0_0
   - 0.6046769501551807 edge_8_1_0_0 - 0.38019097718854 edge_8_2_0_0
   - 0.82354598332844 edge_8_3_0_0 - 0.6420586526277785 edge_8_4_0_0
   - 0.5875971550855686 edge_8_5_0_0 - 0.0755887523150126 edge_8_6_0_0
   + 0.0607871237248074 edge_8_7_0_0 + 0.6082297126480151 edge_8_9_0_0
   + 1.0444826213609 edge_8_10_0_0 + 0.9685389030633524 edge_8_11_0_0
   + 1.018839388696033 edge_8_12_0_0 + 0.2895098005977709 edge_9_8_0_0
   + 1.1139590301668 edge_9_10_0_0 + 0.2058504952701125 edge_9_12_0_0
   - 0.9989804124224999 edge_10_1_0_0 - 0.8985442124122005 edge_10_2_0_0
   - 0.4769007980995815 edge_10_3_0_0 - 0.4857524826628813 edge_10_4_0_0
   - 0.7281220506312001 edge_10_5_0_0 + 0.4759647415873717 edge_10_6_0_0
   + 0.1906521368948287 edge_10_7_0_0 + 3.2057482803894 edge_10_8_0_0
   + 1.2917777207284 edge_10_9_0_0 + 2.92718786438886 edge_10_11_0_0
   + 0.5214236041212391 edge_10_12_0_0 - 0.1610649373210606 edge_11_1_0_0
   + 0.40526531003661 edge_11_2_0_0 - 0.5340227065701648 edge_11_3_0_0
   - 0.6871322650987134 edge_11_4_0_0 - 0.2449161205829183 edge_11_5_0_0
   + 0.3109591491861187 edge_11_6_0_0 + 0.1735914066669036 edge_11_7_0_0
   + 1.7008225980886 edge_11_8_0_0 + 2.747132500796502 edge_11_9_0_0
   + 3.3075362075165 edge_11_10_0_0 + 1.551922690413195 edge_11_12_0_0
   - 1.830199189378252 edge_12_10_0_0 - 1.378282955920002 edge_12_11_0_0
Subject To
 one_parent_1: edge_0_1_0_0 + edge_2_1_0_0 + edge_3_1_0_0 + edge_4_1_0_0
   + edge_5_1_0_0 + edge_6_1_0_0 + edge_7_1_0_0 + edge_8_1_0_0
   + edge_10_1_0_0 + edge_11_1_0_0 = 1
 consume_one_flow_unit_1: flow_0_1_0_0 - flow_1_2_0_0 - flow_1_3_0_0
   - flow_1_4_0_0 - flow_1_5_0_0 - flow_1_6_0_0 - flow_1_7_0_0
   - flow_1_8_0_0 - flow_1_9_0_0 - flow_1_10_0_0 - flow_1_11_0_0
   - flow_1_12_0_0 + flow_2_1_0_0 + flow_3_1_0_0 + flow_4_1_0_0
   + flow_5_1_0_0 + flow_6_1_0_0 + flow_7_1_0_0 + flow_8_1_0_0
   + flow_10_1_0_0 + flow_11_1_0_0 = 1
 one_parent_2: edge_0_2_0_0 + edge_1_2_0_0 + edge_3_2_0_0 + edge_4_2_0_0
   + edge_5_2_0_0 + edge_6_2_0_0 + edge_7_2_0_0 + edge_8_2_0_0
   + edge_10_2_0_0 + edge_11_2_0_0 = 1
 consume_one_flow_unit_2: flow_0_2_0_0 + flow_1_2_0_0 - flow_2_1_0_0
   - flow_2_3_0_0 - flow_2_4_0_0 - flow_2_5_0_0 - flow_2_6_0_0
   - flow_2_7_0_0 - flow_2_8_0_0 - flow_2_10_0_0 - flow_2_11_0_0
   - flow_2_12_0_0 + flow_3_2_0_0 + flow_4_2_0_0 + flow_5_2_0_0
   + flow_6_2_0_0 + flow_7_2_0_0 + flow_8_2_0_0 + flow_10_2_0_0
   + flow_11_2_0_0 = 1
 one_parent_3: edge_0_3_0_0 + edge_1_3_0_0 + edge_2_3_0_0 + edge_4_3_0_0
   + edge_5_3_0_0 + edge_6_3_0_0 + edge_7_3_0_0 + edge_8_3_0_0
   + edge_10_3_0_0 + edge_11_3_0_0 = 1
 consume_one_flow_unit_3: flow_0_3_0_0 + flow_1_3_0_0 + flow_2_3_0_0
   - flow_3_1_0_0 - flow_3_2_0_0 - flow_3_4_0_0 - flow_3_5_0_0
   - flow_3_6_0_0 - flow_3_7_0_0 - flow_3_8_0_0 - flow_3_9_0_0
   - flow_3_10_0_0 - flow_3_11_0_0 - flow_3_12_0_0 + flow_4_3_0_0
   + flow_5_3_0_0 + flow_6_3_0_0 + flow_7_3_0_0 + flow_8_3_0_0
   + flow_10_3_0_0 + flow_11_3_0_0 = 1
 one_parent_4: edge_0_4_0_0 + edge_1_4_0_0 + edge_2_4_0_0 + edge_3_4_0_0
   + edge_5_4_0_0 + edge_6_4_0_0 + edge_7_4_0_0 + edge_8_4_0_0
   + edge_10_4_0_0 + edge_11_4_0_0 = 1
 consume_one_flow_unit_4: flow_0_4_0_0 + flow_1_4_0_0 + flow_2_4_0_0
   + flow_3_4_0_0 - flow_4_1_0_0 - flow_4_2_0_0 - flow_4_3_0_0
   - flow_4_5_0_0 - flow_4_6_0_0 - flow_4_7_0_0 - flow_4_8_0_0
   - flow_4_10_0_0 - flow_4_11_0_0 - flow_4_12_0_0 + flow_5_4_0_0
   + flow_6_4_0_0 + flow_7_4_0_0 + flow_8_4_0_0 + flow_10_4_0_0
   + flow_11_4_0_0 = 1
 one_parent_5: edge_1_5_0_0 + edge_2_5_0_0 + edge_3_5_0_0 + edge_4_5_0_0
   + edge_6_5_0_0 + edge_7_5_0_0 + edge_8_5_0_0 + edge_10_5_0_0
   + edge_11_5_0_0 = 1
 consume_one_flow_unit_5: flow_1_5_0_0 + flow_2_5_0_0 + flow_3_5_0_0
   + flow_4_5_0_0 - flow_5_1_0_0 - flow_5_2_0_0 - flow_5_3_0_0
   - flow_5_4_0_0 - flow_5_6_0_0 - flow_5_7_0_0 - flow_5_11_0_0
   + flow_6_5_0_0 + flow_7_5_0_0 + flow_8_5_0_0 + flow_10_5_0_0
   + flow_11_5_0_0 = 1
 one_parent_6: edge_0_6_0_0 + edge_1_6_0_0 + edge_2_6_0_0 + edge_3_6_0_0
   + edge_4_6_0_0 + edge_5_6_0_0 + edge_7_6_0_0 + edge_8_6_0_0
   + edge_10_6_0_0 + edge_11_6_0_0 = 1
 consume_one_flow_unit_6: flow_0_6_0_0 + flow_1_6_0_0 + flow_2_6_0_0
   + flow_3_6_0_0 + flow_4_6_0_0 + flow_5_6_0_0 - flow_6_1_0_0
   - flow_6_2_0_0 - flow_6_3_0_0 - flow_6_4_0_0 - flow_6_5_0_0
   - flow_6_7_0_0 - flow_6_8_0_0 - flow_6_10_0_0 - flow_6_12_0_0
   + flow_7_6_0_0 + flow_8_6_0_0 + flow_10_6_0_0 + flow_11_6_0_0 = 1
 one_parent_7: edge_0_7_0_0 + edge_1_7_0_0 + edge_2_7_0_0 + edge_3_7_0_0
   + edge_4_7_0_0 + edge_5_7_0_0 + edge_6_7_0_0 + edge_8_7_0_0
   + edge_10_7_0_0 + edge_11_7_0_0 = 1
 consume_one_flow_unit_7: flow_0_7_0_0 + flow_1_7_0_0 + flow_2_7_0_0
   + flow_3_7_0_0 + flow_4_7_0_0 + flow_5_7_0_0 + flow_6_7_0_0
   - flow_7_1_0_0 - flow_7_2_0_0 - flow_7_3_0_0 - flow_7_4_0_0
   - flow_7_5_0_0 - flow_7_6_0_0 - flow_7_8_0_0 - flow_7_9_0_0
   - flow_7_10_0_0 - flow_7_11_0_0 - flow_7_12_0_0 + flow_8_7_0_0
   + flow_10_7_0_0 + flow_11_7_0_0 = 1
 one_parent_8: edge_1_8_0_0 + edge_2_8_0_0 + edge_3_8_0_0 + edge_4_8_0_0
   + edge_6_8_0_0 + edge_7_8_0_0 + edge_9_8_0_0 + edge_10_8_0_0
   + edge_11_8_0_0 = 1
 consume_one_flow_unit_8: flow_1_8_0_0 + flow_2_8_0_0 + flow_3_8_0_0
   + flow_4_8_0_0 + flow_6_8_0_0 + flow_7_8_0_0 - flow_8_1_0_0
   - flow_8_2_0_0 - flow_8_3_0_0 - flow_8_4_0_0 - flow_8_5_0_0
   - flow_8_6_0_0 - flow_8_7_0_0 - flow_8_9_0_0 - flow_8_10_0_0
   - flow_8_11_0_0 - flow_8_12_0_0 + flow_9_8_0_0 + flow_10_8_0_0
   + flow_11_8_0_0 = 1
 one_parent_9: edge_1_9_0_0 + edge_3_9_0_0 + edge_7_9_0_0 + edge_8_9_0_0
   + edge_10_9_0_0 + edge_11_9_0_0 = 1
 consume_one_flow_unit_9: flow_1_9_0_0 + flow_3_9_0_0 + flow_7_9_0_0
   + flow_8_9_0_0 - flow_9_8_0_0 - flow_9_10_0_0 - flow_9_12_0_0
   + flow_10_9_0_0 + flow_11_9_0_0 = 1
 one_parent_10: edge_0_10_0_0 + edge_1_10_0_0 + edge_2_10_0_0
   + edge_3_10_0_0 + edge_4_10_0_0 + edge_6_10_0_0 + edge_7_10_0_0
   + edge_8_10_0_0 + edge_9_10_0_0 + edge_11_10_0_0 + edge_12_10_0_0 = 1
 consume_one_flow_unit_10: flow_0_10_0_0 + flow_1_10_0_0 + flow_2_10_0_0
   + flow_3_10_0_0 + flow_4_10_0_0 + flow_6_10_0_0 + flow_7_10_0_0
   + flow_8_10_0_0 + flow_9_10_0_0 - flow_10_1_0_0 - flow_10_2_0_0
   - flow_10_3_0_0 - flow_10_4_0_0 - flow_10_5_0_0 - flow_10_6_0_0
   - flow_10_7_0_0 - flow_10_8_0_0 - flow_10_9_0_0 - flow_10_11_0_0
   - flow_10_12_0_0 + flow_11_10_0_0 + flow_12_10_0_0 = 1
 one_parent_11: edge_1_11_0_0 + edge_2_11_0_0 + edge_3_11_0_0
   + edge_4_11_0_0 + edge_5_11_0_0 + edge_7_11_0_0 + edge_8_11_0_0
   + edge_10_11_0_0 + edge_12_11_0_0 = 1
 consume_one_flow_unit_11: flow_1_11_0_0 + flow_2_11_0_0 + flow_3_11_0_0
   + flow_4_11_0_0 + flow_5_11_0_0 + flow_7_11_0_0 + flow_8_11_0_0
   + flow_10_11_0_0 - flow_11_1_0_0 - flow_11_2_0_0 - flow_11_3_0_0
   - flow_11_4_0_0 - flow_11_5_0_0 - flow_11_6_0_0 - flow_11_7_0_0
   - flow_11_8_0_0 - flow_11_9_0_0 - flow_11_10_0_0 - flow_11_12_0_0
   + flow_12_11_0_0 = 1
 one_parent_12: edge_1_12_0_0 + edge_2_12_0_0 + edge_3_12_0_0
   + edge_4_12_0_0 + edge_6_12_0_0 + edge_7_12_0_0 + edge_8_12_0_0
   + edge_9_12_0_0 + edge_10_12_0_0 + edge_11_12_0_0 = 1
 consume_one_flow_unit_12: flow_1_12_0_0 + flow_2_12_0_0 + flow_3_12_0_0
   + flow_4_12_0_0 + flow_6_12_0_0 + flow_7_12_0_0 + flow_8_12_0_0
   + flow_9_12_0_0 + flow_10_12_0_0 + flow_11_12_0_0 - flow_12_10_0_0
   - flow_12_11_0_0 = 1
 root_flow: flow_0_1_0_0 + flow_0_2_0_0 + flow_0_3_0_0 + flow_0_4_0_0
   + flow_0_6_0_0 + flow_0_7_0_0 + flow_0_10_0_0 = 12
 inactive_no_flow_0_1_0_0: flow_0_1_0_0 - 1000 edge_0_1_0_0 <= 0
 inactive_no_flow_0_2_0_0: flow_0_2_0_0 - 1000 edge_0_2_0_0 <= 0
 inactive_no_flow_0_3_0_0: flow_0_3_0_0 - 1000 edge_0_3_0_0 <= 0
 inactive_no_flow_0_4_0_0: flow_0_4_0_0 - 1000 edge_0_4_0_0 <= 0
 inactive_no_flow_0_6_0_0: flow_0_6_0_0 - 1000 edge_0_6_0_0 <= 0
 inactive_no_flow_0_7_0_0: flow_0_7_0_0 - 1000 edge_0_7_0_0 <= 0
 inactive_no_flow_0_10_0_0: flow_0_10_0_0 - 1000 edge_0_10_0_0 <= 0
 inactive_no_flow_1_2_0_0: flow_1_2_0_0 - 1000 edge_1_2_0_0 <= 0
 inactive_no_flow_1_3_0_0: flow_1_3_0_0 - 1000 edge_1_3_0_0 <= 0
 inactive_no_flow_1_4_0_0: flow_1_4_0_0 - 1000 edge_1_4_0_0 <= 0
 inactive_no_flow_1_5_0_0: flow_1_5_0_0 - 1000 edge_1_5_0_0 <= 0
 inactive_no_flow_1_6_0_0: flow_1_6_0_0 - 1000 edge_1_6_0_0 <= 0
 inactive_no_flow_1_7_0_0: flow_1_7_0_0 - 1000 edge_1_7_0_0 <= 0
 inactive_no_flow_1_8_0_0: flow_1_8_0_0 - 1000 edge_1_8_0_0 <= 0
 inactive_no_flow_1_9_0_0: flow_1_9_0_0 - 1000 edge_1_9_0_0 <= 0
 inactive_no_flow_1_10_0_0: flow_1_10_0_0 - 1000 edge_1_10_0_0 <= 0
 inactive_no_flow_1_11_0_0: flow_1_11_0_0 - 1000 edge_1_11_0_0 <= 0
 inactive_no_flow_1_12_0_0: flow_1_12_0_0 - 1000 edge_1_12_0_0 <= 0
 inactive_no_flow_2_1_0_0: flow_2_1_0_0 - 1000 edge_2_1_0_0 <= 0
 inactive_no_flow_2_3_0_0: flow_2_3_0_0 - 1000 edge_2_3_0_0 <= 0
 inactive_no_flow_2_4_0_0: flow_2_4_0_0 - 1000 edge_2_4_0_0 <= 0
 inactive_no_flow_2_5_0_0: flow_2_5_0_0 - 1000 edge_2_5_0_0 <= 0
 inactive_no_flow_2_6_0_0: flow_2_6_0_0 - 1000 edge_2_6_0_0 <= 0
 inactive_no_flow_2_7_0_0: flow_2_7_0_0 - 1000 edge_2_7_0_0 <= 0
 inactive_no_flow_2_8_0_0: flow_2_8_0_0 - 1000 edge_2_8_0_0 <= 0
 inactive_no_flow_2_10_0_0: flow_2_10_0_0 - 1000 edge_2_10_0_0 <= 0
 inactive_no_flow_2_11_0_0: flow_2_11_0_0 - 1000 edge_2_11_0_0 <= 0
 inactive_no_flow_2_12_0_0: flow_2_12_0_0 - 1000 edge_2_12_0_0 <= 0
 inactive_no_flow_3_1_0_0: flow_3_1_0_0 - 1000 edge_3_1_0_0 <= 0
 inactive_no_flow_3_2_0_0: flow_3_2_0_0 - 1000 edge_3_2_0_0 <= 0
 inactive_no_flow_3_4_0_0: flow_3_4_0_0 - 1000 edge_3_4_0_0 <= 0
 inactive_no_flow_3_5_0_0: flow_3_5_0_0 - 1000 edge_3_5_0_0 <= 0
 inactive_no_flow_3_6_0_0: flow_3_6_0_0 - 1000 edge_3_6_0_0 <= 0
 inactive_no_flow_3_7_0_0: flow_3_7_0_0 - 1000 edge_3_7_0_0 <= 0
 inactive_no_flow_3_8_0_0: flow_3_8_0_0 - 1000 edge_3_8_0_0 <= 0
 inactive_no_flow_3_9_0_0: flow_3_9_0_0 - 1000 edge_3_9_0_0 <= 0
 inactive_no_flow_3_10_0_0: flow_3_10_0_0 - 1000 edge_3_10_0_0 <= 0
 inactive_no_flow_3_11_0_0: flow_3_11_0_0 - 1000 edge_3_11_0_0 <= 0
 inactive_no_flow_3_12_0_0: flow_3_12_0_0 - 1000 edge_3_12_0_0 <= 0
 inactive_no_flow_4_1_0_0: flow_4_1_0_0 - 1000 edge_4_1_0_0 <= 0
 inactive_no_flow_4_2_0_0: flow_4_2_0_0 - 1000 edge_4_2_0_0 <= 0
 inactive_no_flow_4_3_0_0: flow_4_3_0_0 - 1000 edge_4_3_0_0 <= 0
 inactive_no_flow_4_5_0_0: flow_4_5_0_0 - 1000 edge_4_5_0_0 <= 0
 inactive_no_flow_4_6_0_0: flow_4_6_0_0 - 1000 edge_4_6_0_0 <= 0
 inactive_no_flow_4_7_0_0: flow_4_7_0_0 - 1000 edge_4_7_0_0 <= 0
 inactive_no_flow_4_8_0_0: flow_4_8_0_0 - 1000 edge_4_8_0_0 <= 0
 inactive_no_flow_4_10_0_0: flow_4_10_0_0 - 1000 edge_4_10_0_0 <= 0
 inactive_no_flow_4_11_0_0: flow_4_11_0_0 - 1000 edge_4_11_0_0 <= 0
 inactive_no_flow_4_12_0_0: flow_4_12_0_0 - 1000 edge_4_12_0_0 <= 0
 inactive_no_flow_5_1_0_0: flow_5_1_0_0 - 1000 edge_5_1_0_0 <= 0
 inactive_no_flow_5_2_0_0: flow_5_2_0_0 - 1000 edge_5_2_0_0 <= 0
 inactive_no_flow_5_3_0_0: flow_5_3_0_0 - 1000 edge_5_3_0_0 <= 0
 inactive_no_flow_5_4_0_0: flow_5_4_0_0 - 1000 edge_5_4_0_0 <= 0
 inactive_no_flow_5_6_0_0: flow_5_6_0_0 - 1000 edge_5_6_0_0 <= 0
 inactive_no_flow_5_7_0_0: flow_5_7_0_0 - 1000 edge_5_7_0_0 <= 0
 inactive_no_flow_5_11_0_0: flow_5_11_0_0 - 1000 edge_5_11_0_0 <= 0
 inactive_no_flow_6_1_0_0: flow_6_1_0_0 - 1000 edge_6_1_0_0 <= 0
 inactive_no_flow_6_2_0_0: flow_6_2_0_0 - 1000 edge_6_2_0_0 <= 0
 inactive_no_flow_6_3_0_0: flow_6_3_0_0 - 1000 edge_6_3_0_0 <= 0
 inactive_no_flow_6_4_0_0: flow_6_4_0_0 - 1000 edge_6_4_0_0 <= 0
 inactive_no_flow_6_5_0_0: flow_6_5_0_0 - 1000 edge_6_5_0_0 <= 0
 inactive_no_flow_6_7_0_0: flow_6_7_0_0 - 1000 edge_6_7_0_0 <= 0
 inactive_no_flow_6_8_0_0: flow_6_8_0_0 - 1000 edge_6_8_0_0 <= 0
 inactive_no_flow_6_10_0_0: flow_6_10_0_0 - 1000 edge_6_10_0_0 <= 0
 inactive_no_flow_6_12_0_0: flow_6_12_0_0 - 1000 edge_6_12_0_0 <= 0
 inactive_no_flow_7_1_0_0: flow_7_1_0_0 - 1000 edge_7_1_0_0 <= 0
 inactive_no_flow_7_2_0_0: flow_7_2_0_0 - 1000 edge_7_2_0_0 <= 0
 inactive_no_flow_7_3_0_0: flow_7_3_0_0 - 1000 edge_7_3_0_0 <= 0
 inactive_no_flow_7_4_0_0: flow_7_4_0_0 - 1000 edge_7_4_0_0 <= 0
 inactive_no_flow_7_5_0_0: flow_7_5_0_0 - 1000 edge_7_5_0_0 <= 0
 inactive_no_flow_7_6_0_0: flow_7_6_0_0 - 1000 edge_7_6_0_0 <= 0
 inactive_no_flow_7_8_0_0: flow_7_8_0_0 - 1000 edge_7_8_0_0 <= 0
 inactive_no_flow_7_9_0_0: flow_7_9_0_0 - 1000 edge_7_9_0_0 <= 0
 inactive_no_flow_7_10_0_0: flow_7_10_0_0 - 1000 edge_7_10_0_0 <= 0
 inactive_no_flow_7_11_0_0: flow_7_11_0_0 - 1000 edge_7_11_0_0 <= 0
 inactive_no_flow_7_12_0_0: flow_7_12_0_0 - 1000 edge_7_12_0_0 <= 0
 inactive_no_flow_8_1_0_0: flow_8_1_0_0 - 1000 edge_8_1_0_0 <= 0
 inactive_no_flow_8_2_0_0: flow_8_2_0_0 - 1000 edge_8_2_0_0 <= 0
 inactive_no_flow_8_3_0_0: flow_8_3_0_0 - 1000 edge_8_3_0_0 <= 0
 inactive_no_flow_8_4_0_0: flow_8_4_0_0 - 1000 edge_8_4_0_0 <= 0
 inactive_no_flow_8_5_0_0: flow_8_5_0_0 - 1000 edge_8_5_0_0 <= 0
 inactive_no_flow_8_6_0_0: flow_8_6_0_0 - 1000 edge_8_6_0_0 <= 0
 inactive_no_flow_8_7_0_0: flow_8_7_0_0 - 1000 edge_8_7_0_0 <= 0
 inactive_no_flow_8_9_0_0: flow_8_9_0_0 - 1000 edge_8_9_0_0 <= 0
 inactive_no_flow_8_10_0_0: flow_8_10_0_0 - 1000 edge_8_10_0_0 <= 0
 inactive_no_flow_8_11_0_0: flow_8_11_0_0 - 1000 edge_8_11_0_0 <= 0
 inactive_no_flow_8_12_0_0: flow_8_12_0_0 - 1000 edge_8_12_0_0 <= 0
 inactive_no_flow_9_8_0_0: flow_9_8_0_0 - 1000 edge_9_8_0_0 <= 0
 inactive_no_flow_9_10_0_0: flow_9_10_0_0 - 1000 edge_9_10_0_0 <= 0
 inactive_no_flow_9_12_0_0: flow_9_12_0_0 - 1000 edge_9_12_0_0 <= 0
 inactive_no_flow_10_1_0_0: flow_10_1_0_0 - 1000 edge_10_1_0_0 <= 0
 inactive_no_flow_10_2_0_0: flow_10_2_0_0 - 1000 edge_10_2_0_0 <= 0
 inactive_no_flow_10_3_0_0: flow_10_3_0_0 - 1000 edge_10_3_0_0 <= 0
 inactive_no_flow_10_4_0_0: flow_10_4_0_0 - 1000 edge_10_4_0_0 <= 0
 inactive_no_flow_10_5_0_0: flow_10_5_0_0 - 1000 edge_10_5_0_0 <= 0
 inactive_no_flow_10_6_0_0: flow_10_6_0_0 - 1000 edge_10_6_0_0 <= 0
 inactive_no_flow_10_7_0_0: flow_10_7_0_0 - 1000 edge_10_7_0_0 <= 0
 inactive_no_flow_10_8_0_0: flow_10_8_0_0 - 1000 edge_10_8_0_0 <= 0
 inactive_no_flow_10_9_0_0: flow_10_9_0_0 - 1000 edge_10_9_0_0 <= 0
 inactive_no_flow_10_11_0_0: flow_10_11_0_0 - 1000 edge_10_11_0_0 <= 0
 inactive_no_flow_10_12_0_0: flow_10_12_0_0 - 1000 edge_10_12_0_0 <= 0
 inactive_no_flow_11_1_0_0: flow_11_1_0_0 - 1000 edge_11_1_0_0 <= 0
 inactive_no_flow_11_2_0_0: flow_11_2_0_0 - 1000 edge_11_2_0_0 <= 0
 inactive_no_flow_11_3_0_0: flow_11_3_0_0 - 1000 edge_11_3_0_0 <= 0
 inactive_no_flow_11_4_0_0: flow_11_4_0_0 - 1000 edge_11_4_0_0 <= 0
 inactive_no_flow_11_5_0_0: flow_11_5_0_0 - 1000 edge_11_5_0_0 <= 0
 inactive_no_flow_11_6_0_0: flow_11_6_0_0 - 1000 edge_11_6_0_0 <= 0
 inactive_no_flow_11_7_0_0: flow_11_7_0_0 - 1000 edge_11_7_0_0 <= 0
 inactive_no_flow_11_8_0_0: flow_11_8_0_0 - 1000 edge_11_8_0_0 <= 0
 inactive_no_flow_11_9_0_0: flow_11_9_0_0 - 1000 edge_11_9_0_0 <= 0
 inactive_no_flow_11_10_0_0: flow_11_10_0_0 - 1000 edge_11_10_0_0 <= 0
 inactive_no_flow_11_12_0_0: flow_11_12_0_0 - 1000 edge_11_12_0_0 <= 0
 inactive_no_flow_12_10_0_0: flow_12_10_0_0 - 1000 edge_12_10_0_0 <= 0
 inactive_no_flow_12_11_0_0: flow_12_11_0_0 - 1000 edge_12_11_0_0 <= 0
Bounds
Binaries
 edge_0_1_0_0 edge_0_2_0_0 edge_0_3_0_0 edge_0_4_0_0 edge_0_6_0_0
 edge_0_7_0_0 edge_0_10_0_0 edge_1_2_0_0 edge_1_3_0_0 edge_1_4_0_0
 edge_1_5_0_0 edge_1_6_0_0 edge_1_7_0_0 edge_1_8_0_0 edge_1_9_0_0
 edge_1_10_0_0 edge_1_11_0_0 edge_1_12_0_0 edge_2_1_0_0 edge_2_3_0_0
 edge_2_4_0_0 edge_2_5_0_0 edge_2_6_0_0 edge_2_7_0_0 edge_2_8_0_0
 edge_2_10_0_0 edge_2_11_0_0 edge_2_12_0_0 edge_3_1_0_0 edge_3_2_0_0
 edge_3_4_0_0 edge_3_5_0_0 edge_3_6_0_0 edge_3_7_0_0 edge_3_8_0_0
 edge_3_9_0_0 edge_3_10_0_0 edge_3_11_0_0 edge_3_12_0_0 edge_4_1_0_0
 edge_4_2_0_0 edge_4_3_0_0 edge_4_5_0_0 edge_4_6_0_0 edge_4_7_0_0
 edge_4_8_0_0 edge_4_10_0_0 edge_4_11_0_0 edge_4_12_0_0 edge_5_1_0_0
 edge_5_2_0_0 edge_5_3_0_0 edge_5_4_0_0 edge_5_6_0_0 edge_5_7_0_0
 edge_5_11_0_0 edge_6_1_0_0 edge_6_2_0_0 edge_6_3_0_0 edge_6_4_0_0
 edge_6_5_0_0 edge_6_7_0_0 edge_6_8_0_0 edge_6_10_0_0 edge_6_12_0_0
 edge_7_1_0_0 edge_7_2_0_0 edge_7_3_0_0 edge_7_4_0_0 edge_7_5_0_0
 edge_7_6_0_0 edge_7_8_0_0 edge_7_9_0_0 edge_7_10_0_0 edge_7_11_0_0
 edge_7_12_0_0 edge_8_1_0_0 edge_8_2_0_0 edge_8_3_0_0 edge_8_4_0_0
 edge_8_5_0_0 edge_8_6_0_0 edge_8_7_0_0 edge_8_9_0_0 edge_8_10_0_0
 edge_8_11_0_0 edge_8_12_0_0 edge_9_8_0_0 edge_9_10_0_0 edge_9_12_0_0
 edge_10_1_0_0 edge_10_2_0_0 edge_10_3_0_0 edge_10_4_0_0 edge_10_5_0_0
 edge_10_6_0_0 edge_10_7_0_0 edge_10_8_0_0 edge_10_9_0_0 edge_10_11_0_0
 edge_10_12_0_0 edge_11_1_0_0 edge_11_2_0_0 edge_11_3_0_0 edge_11_4_0_0
 edge_11_5_0_0 edge_11_6_0_0 edge_11_7_0_0 edge_11_8_0_0 edge_11_9_0_0
 edge_11_10_0_0 edge_11_12_0_0 edge_12_10_0_0 edge_12_11_0_0
End
